
Gurobi 11.0.3 (linux64) logging started Fri Nov 22 15:38:48 2024

Set parameter LogFile to value "/home/yihong/Coding/OR_SUC/SUC_results_bigM100000_thread4/case24_ieee_rts_theta0.5_epsilon0.025_gurobi_seed820000_num_gen100_N_WDR100_load_scaling_factor1_proposed_T20quadra_cost.txt"
Set parameter TimeLimit to value 3600
Gurobi Optimizer version 11.0.3 build v11.0.3rc0 (linux64 - "Ubuntu 20.04.6 LTS")

CPU model: AMD EPYC 7532 32-Core Processor, instruction set [SSE2|AVX|AVX2]
Thread count: 64 physical cores, 128 logical processors, using up to 4 threads

Optimize a model with 43202 rows, 24901 columns and 590362 nonzeros
Model fingerprint: 0x287d1863
Model has 2000 quadratic constraints
Variable types: 22901 continuous, 2000 integer (2000 binary)
Coefficient statistics:
  Matrix range     [3e-04, 2e+03]
  QMatrix range    [2e-03, 8e-03]
  QLMatrix range   [1e-01, 6e+01]
  Objective range  [1e+00, 1e+00]
  Bounds range     [1e+00, 1e+00]
  RHS range        [1e+00, 9e+03]
Presolve removed 35030 rows and 10807 columns
Presolve time: 0.21s
Presolved: 8172 rows, 14094 columns, 52708 nonzeros
Presolved model has 2000 quadratic constraint(s)
Variable types: 12094 continuous, 2000 integer (2000 binary)

Root relaxation: objective 5.552352e+04, 6372 iterations, 0.13 seconds (0.18 work units)

    Nodes    |    Current Node    |     Objective Bounds      |     Work
 Expl Unexpl |  Obj  Depth IntInf | Incumbent    BestBd   Gap | It/Node Time

     0     0 55523.5243    0   20          - 55523.5243      -     -    0s
     0     0 375097.934    0  463          - 375097.934      -     -    0s
     0     0 387169.991    0  460          - 387169.991      -     -    0s
     0     0 554492.456    0  442          - 554492.456      -     -    1s
     0     0 554508.316    0  325          - 554508.316      -     -    1s
     0     0 554652.056    0  290          - 554652.056      -     -    1s
     0     0 554656.500    0  290          - 554656.500      -     -    1s
     0     0 554656.500    0  290          - 554656.500      -     -    1s
     0     0 554656.500    0  290          - 554656.500      -     -    1s
     0     2 554656.500    0  290          - 554656.500      -     -    1s
H  448   419                    556285.69768 554688.178  0.29%  27.2    3s
*  448   419             143    556285.69768 554688.178  0.29%  27.2    3s
   597   408 554936.568   53  290 556285.698 554696.024  0.29%  25.4    5s
   619   423 554797.369    6  277 556285.698 554696.024  0.29%  24.5   10s
   696   494 554801.892   20  179 556285.698 554703.242  0.28%  55.3   15s
H 1155   489                    554958.90479 554703.247  0.05%  64.3   17s
* 1155   489             111    554958.90479 554703.247  0.05%  64.3   17s

Cutting planes:
  Gomory: 11
  Cover: 1
  Implied bound: 13
  MIR: 57
  Flow cover: 25
  RLT: 13

Explored 1182 nodes (93612 simplex iterations) in 18.40 seconds (19.71 work units)
Thread count was 4 (of 128 available processors)

Solution count 2: 554959 556286 

Optimal solution found (tolerance 1.00e-03)
Warning: max constraint violation (1.3352e-07) exceeds tolerance
Best objective 5.549589047896e+05, best bound 5.547032471128e+05, gap 0.0461%
